<?xml version="1.0" encoding="UTF-8"?><osil xmlns="os.optimizationservices.org"   xmlns:xsi="http://www.w3.org/2001/XMLSchema-instance" xsi:schemaLocation="os.optimizationservices.org http://www.optimizationservices.org/schemas/2.0/OSiL.xsd" ><instanceHeader><name>q_20_4_25_4</name></instanceHeader><instanceData><variables numberOfVariables="20"><var name="x1" ub="1"/><var name="x2" ub="1"/><var name="x3" ub="1"/><var name="x4" ub="1"/><var name="x5" ub="1"/><var name="x6" ub="1"/><var name="x7" ub="1"/><var name="x8" ub="1"/><var name="x9" ub="1"/><var name="x10" ub="1"/><var name="x11" ub="1"/><var name="x12" ub="1"/><var name="x13" ub="1"/><var name="x14" ub="1"/><var name="x15" ub="1"/><var name="x16" ub="1"/><var name="x17" ub="1"/><var name="x18" ub="1"/><var name="x19" ub="1"/><var name="x20" ub="1"/></variables><objectives numberOfObjectives="1"><obj maxOrMin="min" name="defObj_x21" numberOfObjCoef="20"><coef idx="0">.4342</coef><coef idx="1">.2648</coef><coef idx="2">.3778</coef><coef idx="3">-.8064</coef><coef idx="4">.6143</coef><coef idx="5">7.3e-3</coef><coef idx="6">-.385</coef><coef idx="7">-.1292</coef><coef idx="8">7.95e-2</coef><coef idx="9">-.3467</coef><coef idx="10">.4255</coef><coef idx="11">.5645</coef><coef idx="12">-.6424</coef><coef idx="13">1.19e-2</coef><coef idx="14">-.6729</coef><coef idx="15">.5847</coef><coef idx="16">.7055</coef><coef idx="17">.325</coef><coef idx="18">.2792</coef><coef idx="19">9.1e-3</coef></obj></objectives><constraints numberOfConstraints="4"><con name="e2" ub="73.762"/><con name="e3" ub="91.145"/><con name="e4" ub="20.533"/><con name="e5" ub="92.159"/></constraints><linearConstraintCoefficients numberOfValues="80"><start><el mult="5" incr="20">0</el></start><colIdx><el mult="20" incr="1">0</el><el mult="20" incr="1">0</el><el mult="20" incr="1">0</el><el mult="20" incr="1">0</el></colIdx><value><el>.3158</el><el>-.8643</el><el>-.8024</el><el>-.6817</el><el>-.9275</el><el>.5669</el><el>-.8213</el><el>.3068</el><el>.9216</el><el>.8245</el><el>-.387</el><el>.2332</el><el>-.2114</el><el>-.5222</el><el>-.1285</el><el>.2733</el><el>-.5025</el><el>-.3684</el><el>-.1281</el><el>.7043</el><el>.3384</el><el>.7428</el><el>.6871</el><el>-.2774</el><el>.1942</el><el>-3.72e-2</el><el>.9036</el><el>.9891</el><el>.2623</el><el>.4058</el><el>.2905</el><el>.8707</el><el>-.6906</el><el>1.75e-2</el><el>.7644</el><el>.1747</el><el>-.3217</el><el>-.3756</el><el>-.4446</el><el>-.5191</el><el>-.723</el><el>.7367</el><el>-.5166</el><el>-.6852</el><el>.5099</el><el>-.1606</el><el>-.8887</el><el>.499</el><el>.6686</el><el>.4415</el><el>-.2126</el><el>-.8338</el><el>-.8861</el><el>-.9484</el><el>-.2048</el><el>-.1835</el><el>-.2758</el><el>-.5844</el><el>.3621</el><el>.6829</el><el>3.72e-2</el><el>-.6933</el><el>.9793</el><el>-.2495</el><el>-.865</el><el>-.5344</el><el>.3443</el><el>9.46e-2</el><el>.99</el><el>.1293</el><el>-.1439</el><el>-.1023</el><el>.4527</el><el>-.9526</el><el>-.9404</el><el>-.4876</el><el>-.4892</el><el>-.8809</el><el>.5844</el><el>-.5909</el></value></linearConstraintCoefficients><quadraticCoefficients  numberOfQuadraticTerms="260" ><qTerm  idx="-1"  idxOne="0"  idxTwo="9"  coef="-.7422"/><qTerm  idx="-1"  idxOne="0"  idxTwo="17"  coef="1.9849"/><qTerm  idx="-1"  idxOne="1"  idxTwo="9"  coef="-1.6597"/><qTerm  idx="-1"  idxOne="1"  idxTwo="10"  coef="-1.8801"/><qTerm  idx="-1"  idxOne="1"  idxTwo="12"  coef=".2754"/><qTerm  idx="-1"  idxOne="1"  idxTwo="13"  coef="-.4247"/><qTerm  idx="-1"  idxOne="1"  idxTwo="16"  coef="-.5252"/><qTerm  idx="-1"  idxOne="2"  idxTwo="4"  coef=".1853"/><qTerm  idx="-1"  idxOne="2"  idxTwo="6"  coef=".776"/><qTerm  idx="-1"  idxOne="2"  idxTwo="7"  coef="-.3369"/><qTerm  idx="-1"  idxOne="2"  idxTwo="9"  coef="1.8904"/><qTerm  idx="-1"  idxOne="2"  idxTwo="10"  coef="1.2302"/><qTerm  idx="-1"  idxOne="3"  idxTwo="7"  coef="-1.151"/><qTerm  idx="-1"  idxOne="3"  idxTwo="17"  coef=".7605"/><qTerm  idx="-1"  idxOne="4"  idxTwo="6"  coef="1.5869"/><qTerm  idx="-1"  idxOne="4"  idxTwo="7"  coef=".5772"/><qTerm  idx="-1"  idxOne="4"  idxTwo="9"  coef="-.7101"/><qTerm  idx="-1"  idxOne="4"  idxTwo="12"  coef="-1.2917"/><qTerm  idx="-1"  idxOne="4"  idxTwo="13"  coef=".1548"/><qTerm  idx="-1"  idxOne="4"  idxTwo="17"  coef="-.8453"/><qTerm  idx="-1"  idxOne="5"  idxTwo="10"  coef="-.979"/><qTerm  idx="-1"  idxOne="5"  idxTwo="16"  coef=".931"/><qTerm  idx="-1"  idxOne="5"  idxTwo="17"  coef=".4065"/><qTerm  idx="-1"  idxOne="5"  idxTwo="19"  coef="-.5738"/><qTerm  idx="-1"  idxOne="6"  idxTwo="6"  coef="-.1673"/><qTerm  idx="-1"  idxOne="6"  idxTwo="7"  coef="-.1795"/><qTerm  idx="-1"  idxOne="6"  idxTwo="11"  coef="1.3766"/><qTerm  idx="-1"  idxOne="6"  idxTwo="13"  coef="-1.5423"/><qTerm  idx="-1"  idxOne="6"  idxTwo="14"  coef="1.9105"/><qTerm  idx="-1"  idxOne="7"  idxTwo="16"  coef="1.8247"/><qTerm  idx="-1"  idxOne="7"  idxTwo="17"  coef=".2244"/><qTerm  idx="-1"  idxOne="8"  idxTwo="10"  coef="-1.7621"/><qTerm  idx="-1"  idxOne="8"  idxTwo="15"  coef="1.7286"/><qTerm  idx="-1"  idxOne="8"  idxTwo="16"  coef="1.6268"/><qTerm  idx="-1"  idxOne="9"  idxTwo="9"  coef="1.5214"/><qTerm  idx="-1"  idxOne="10"  idxTwo="16"  coef="1.7239"/><qTerm  idx="-1"  idxOne="10"  idxTwo="18"  coef=".9097"/><qTerm  idx="-1"  idxOne="10"  idxTwo="19"  coef="-.4086"/><qTerm  idx="-1"  idxOne="11"  idxTwo="17"  coef="-1.2111"/><qTerm  idx="-1"  idxOne="11"  idxTwo="18"  coef="-1.1484"/><qTerm  idx="-1"  idxOne="12"  idxTwo="13"  coef="-.8999"/><qTerm  idx="-1"  idxOne="13"  idxTwo="15"  coef=".6846"/><qTerm  idx="-1"  idxOne="13"  idxTwo="17"  coef=".7669"/><qTerm  idx="-1"  idxOne="14"  idxTwo="15"  coef="1.4336"/><qTerm  idx="-1"  idxOne="15"  idxTwo="15"  coef="-1.0082"/><qTerm  idx="-1"  idxOne="15"  idxTwo="16"  coef="1.3278"/><qTerm  idx="-1"  idxOne="15"  idxTwo="18"  coef="-1.9447"/><qTerm  idx="-1"  idxOne="15"  idxTwo="19"  coef="1.1612"/><qTerm  idx="-1"  idxOne="17"  idxTwo="18"  coef="-.7978"/><qTerm  idx="-1"  idxOne="17"  idxTwo="19"  coef="-1.3413"/><qTerm  idx="-1"  idxOne="18"  idxTwo="19"  coef="1.4132"/><qTerm  idx="-1"  idxOne="19"  idxTwo="19"  coef="1.4015"/><qTerm  idx="0"  idxOne="0"  idxTwo="8"  coef=".4656"/><qTerm  idx="0"  idxOne="0"  idxTwo="13"  coef="-1.5573"/><qTerm  idx="0"  idxOne="0"  idxTwo="15"  coef="1.4011"/><qTerm  idx="0"  idxOne="1"  idxTwo="5"  coef=".4627"/><qTerm  idx="0"  idxOne="1"  idxTwo="6"  coef="-.6004"/><qTerm  idx="0"  idxOne="1"  idxTwo="7"  coef="1.4361"/><qTerm  idx="0"  idxOne="1"  idxTwo="8"  coef="1.9414"/><qTerm  idx="0"  idxOne="1"  idxTwo="9"  coef="-.2828"/><qTerm  idx="0"  idxOne="1"  idxTwo="10"  coef="-1.8128"/><qTerm  idx="0"  idxOne="1"  idxTwo="11"  coef=".6512"/><qTerm  idx="0"  idxOne="1"  idxTwo="14"  coef="-.9379"/><qTerm  idx="0"  idxOne="1"  idxTwo="16"  coef="1.4431"/><qTerm  idx="0"  idxOne="2"  idxTwo="6"  coef="1.5009"/><qTerm  idx="0"  idxOne="2"  idxTwo="10"  coef="1.4998"/><qTerm  idx="0"  idxOne="2"  idxTwo="11"  coef="1.9059"/><qTerm  idx="0"  idxOne="2"  idxTwo="13"  coef="-.7397"/><qTerm  idx="0"  idxOne="2"  idxTwo="18"  coef="-1.2632"/><qTerm  idx="0"  idxOne="3"  idxTwo="6"  coef="-1.5212"/><qTerm  idx="0"  idxOne="3"  idxTwo="12"  coef="-1.9292"/><qTerm  idx="0"  idxOne="3"  idxTwo="13"  coef="-1.8985"/><qTerm  idx="0"  idxOne="3"  idxTwo="15"  coef="-1.9679"/><qTerm  idx="0"  idxOne="4"  idxTwo="4"  coef=".3315"/><qTerm  idx="0"  idxOne="4"  idxTwo="5"  coef="-.2592"/><qTerm  idx="0"  idxOne="4"  idxTwo="13"  coef="1.548"/><qTerm  idx="0"  idxOne="4"  idxTwo="14"  coef=".8375"/><qTerm  idx="0"  idxOne="5"  idxTwo="11"  coef="1.2862"/><qTerm  idx="0"  idxOne="5"  idxTwo="16"  coef="-1.5987"/><qTerm  idx="0"  idxOne="5"  idxTwo="17"  coef="1.6614"/><qTerm  idx="0"  idxOne="6"  idxTwo="10"  coef="-.3752"/><qTerm  idx="0"  idxOne="6"  idxTwo="11"  coef="1.9885"/><qTerm  idx="0"  idxOne="6"  idxTwo="15"  coef="1.3313"/><qTerm  idx="0"  idxOne="7"  idxTwo="8"  coef="1.5711"/><qTerm  idx="0"  idxOne="7"  idxTwo="9"  coef="-1.112"/><qTerm  idx="0"  idxOne="7"  idxTwo="11"  coef="-.594"/><qTerm  idx="0"  idxOne="7"  idxTwo="14"  coef=".2501"/><qTerm  idx="0"  idxOne="7"  idxTwo="16"  coef="1.8038"/><qTerm  idx="0"  idxOne="8"  idxTwo="14"  coef=".8508"/><qTerm  idx="0"  idxOne="8"  idxTwo="15"  coef=".5099"/><qTerm  idx="0"  idxOne="8"  idxTwo="17"  coef="-8.88e-2"/><qTerm  idx="0"  idxOne="9"  idxTwo="14"  coef="1.9758"/><qTerm  idx="0"  idxOne="10"  idxTwo="16"  coef="-.6317"/><qTerm  idx="0"  idxOne="10"  idxTwo="19"  coef="1.3531"/><qTerm  idx="0"  idxOne="11"  idxTwo="13"  coef="1.9501"/><qTerm  idx="0"  idxOne="11"  idxTwo="14"  coef="1.4304"/><qTerm  idx="0"  idxOne="12"  idxTwo="13"  coef=".2512"/><qTerm  idx="0"  idxOne="12"  idxTwo="18"  coef="-.6316"/><qTerm  idx="0"  idxOne="13"  idxTwo="13"  coef="1.5141"/><qTerm  idx="0"  idxOne="13"  idxTwo="15"  coef="1.7806"/><qTerm  idx="0"  idxOne="13"  idxTwo="16"  coef="-1.9892"/><qTerm  idx="0"  idxOne="13"  idxTwo="17"  coef=".2468"/><qTerm  idx="0"  idxOne="14"  idxTwo="16"  coef="-1.3099"/><qTerm  idx="0"  idxOne="14"  idxTwo="18"  coef="1.6535"/><qTerm  idx="1"  idxOne="1"  idxTwo="1"  coef="-.5981"/><qTerm  idx="1"  idxOne="1"  idxTwo="2"  coef="1.7072"/><qTerm  idx="1"  idxOne="1"  idxTwo="4"  coef="-.1473"/><qTerm  idx="1"  idxOne="1"  idxTwo="5"  coef="-.2227"/><qTerm  idx="1"  idxOne="1"  idxTwo="9"  coef="-.7106"/><qTerm  idx="1"  idxOne="2"  idxTwo="9"  coef="1.0185"/><qTerm  idx="1"  idxOne="2"  idxTwo="12"  coef="1.1676"/><qTerm  idx="1"  idxOne="2"  idxTwo="13"  coef="-1.4461"/><qTerm  idx="1"  idxOne="2"  idxTwo="14"  coef="-.5971"/><qTerm  idx="1"  idxOne="2"  idxTwo="17"  coef="1.5812"/><qTerm  idx="1"  idxOne="2"  idxTwo="18"  coef="-1.8326"/><qTerm  idx="1"  idxOne="3"  idxTwo="6"  coef="1.246"/><qTerm  idx="1"  idxOne="3"  idxTwo="12"  coef=".2409"/><qTerm  idx="1"  idxOne="4"  idxTwo="6"  coef=".6126"/><qTerm  idx="1"  idxOne="4"  idxTwo="7"  coef=".399"/><qTerm  idx="1"  idxOne="4"  idxTwo="10"  coef="-2.26e-2"/><qTerm  idx="1"  idxOne="4"  idxTwo="14"  coef="-1.5469"/><qTerm  idx="1"  idxOne="4"  idxTwo="15"  coef="-1.5069"/><qTerm  idx="1"  idxOne="4"  idxTwo="16"  coef=".5165"/><qTerm  idx="1"  idxOne="5"  idxTwo="7"  coef="1.0804"/><qTerm  idx="1"  idxOne="5"  idxTwo="14"  coef="-1.9462"/><qTerm  idx="1"  idxOne="5"  idxTwo="17"  coef=".1036"/><qTerm  idx="1"  idxOne="6"  idxTwo="11"  coef="-.9589"/><qTerm  idx="1"  idxOne="6"  idxTwo="12"  coef=".4197"/><qTerm  idx="1"  idxOne="6"  idxTwo="13"  coef="-.375"/><qTerm  idx="1"  idxOne="6"  idxTwo="14"  coef="-9.96e-2"/><qTerm  idx="1"  idxOne="6"  idxTwo="16"  coef=".1926"/><qTerm  idx="1"  idxOne="6"  idxTwo="17"  coef="-1.5107"/><qTerm  idx="1"  idxOne="6"  idxTwo="19"  coef="-.9088"/><qTerm  idx="1"  idxOne="7"  idxTwo="10"  coef="1.025"/><qTerm  idx="1"  idxOne="7"  idxTwo="14"  coef="5.29e-2"/><qTerm  idx="1"  idxOne="7"  idxTwo="18"  coef="-1.7584"/><qTerm  idx="1"  idxOne="8"  idxTwo="8"  coef="-1.3801"/><qTerm  idx="1"  idxOne="8"  idxTwo="11"  coef=".5746"/><qTerm  idx="1"  idxOne="8"  idxTwo="12"  coef="1.8695"/><qTerm  idx="1"  idxOne="9"  idxTwo="9"  coef="-1.2551"/><qTerm  idx="1"  idxOne="9"  idxTwo="11"  coef=".2848"/><qTerm  idx="1"  idxOne="9"  idxTwo="14"  coef="-.9121"/><qTerm  idx="1"  idxOne="10"  idxTwo="10"  coef="-.9378"/><qTerm  idx="1"  idxOne="10"  idxTwo="13"  coef=".281"/><qTerm  idx="1"  idxOne="10"  idxTwo="14"  coef="1.2343"/><qTerm  idx="1"  idxOne="10"  idxTwo="17"  coef="-1.4986"/><qTerm  idx="1"  idxOne="11"  idxTwo="13"  coef=".3209"/><qTerm  idx="1"  idxOne="11"  idxTwo="14"  coef="-.4454"/><qTerm  idx="1"  idxOne="11"  idxTwo="16"  coef="-.5305"/><qTerm  idx="1"  idxOne="11"  idxTwo="17"  coef=".7354"/><qTerm  idx="1"  idxOne="11"  idxTwo="18"  coef=".1581"/><qTerm  idx="1"  idxOne="12"  idxTwo="19"  coef="-1.9165"/><qTerm  idx="1"  idxOne="14"  idxTwo="15"  coef="1.1686"/><qTerm  idx="1"  idxOne="15"  idxTwo="16"  coef="1.5495"/><qTerm  idx="1"  idxOne="17"  idxTwo="18"  coef="-1.7831"/><qTerm  idx="1"  idxOne="18"  idxTwo="18"  coef="1.4247"/><qTerm  idx="2"  idxOne="0"  idxTwo="7"  coef="-1.9403"/><qTerm  idx="2"  idxOne="0"  idxTwo="8"  coef="-1.8088"/><qTerm  idx="2"  idxOne="0"  idxTwo="19"  coef="-.6291"/><qTerm  idx="2"  idxOne="1"  idxTwo="2"  coef="1.5083"/><qTerm  idx="2"  idxOne="2"  idxTwo="4"  coef=".3386"/><qTerm  idx="2"  idxOne="2"  idxTwo="5"  coef="-1.3106"/><qTerm  idx="2"  idxOne="2"  idxTwo="9"  coef="-1.8787"/><qTerm  idx="2"  idxOne="2"  idxTwo="11"  coef="1.4323"/><qTerm  idx="2"  idxOne="2"  idxTwo="13"  coef="1.3703"/><qTerm  idx="2"  idxOne="2"  idxTwo="15"  coef="-1.6017"/><qTerm  idx="2"  idxOne="2"  idxTwo="17"  coef="-1.3468"/><qTerm  idx="2"  idxOne="3"  idxTwo="3"  coef="-1.4099"/><qTerm  idx="2"  idxOne="3"  idxTwo="11"  coef=".5034"/><qTerm  idx="2"  idxOne="3"  idxTwo="12"  coef=".9667"/><qTerm  idx="2"  idxOne="3"  idxTwo="14"  coef="-.5901"/><qTerm  idx="2"  idxOne="3"  idxTwo="16"  coef="-1.41e-2"/><qTerm  idx="2"  idxOne="3"  idxTwo="17"  coef="4.05e-2"/><qTerm  idx="2"  idxOne="3"  idxTwo="18"  coef="-1.5747"/><qTerm  idx="2"  idxOne="4"  idxTwo="8"  coef="1.6e-2"/><qTerm  idx="2"  idxOne="4"  idxTwo="15"  coef=".2231"/><qTerm  idx="2"  idxOne="4"  idxTwo="16"  coef="1.7261"/><qTerm  idx="2"  idxOne="4"  idxTwo="18"  coef=".4541"/><qTerm  idx="2"  idxOne="5"  idxTwo="7"  coef="1.0149"/><qTerm  idx="2"  idxOne="5"  idxTwo="8"  coef="-.6133"/><qTerm  idx="2"  idxOne="5"  idxTwo="10"  coef="-1.9358"/><qTerm  idx="2"  idxOne="6"  idxTwo="6"  coef="-.8654"/><qTerm  idx="2"  idxOne="6"  idxTwo="8"  coef="1.59e-2"/><qTerm  idx="2"  idxOne="6"  idxTwo="11"  coef=".6992"/><qTerm  idx="2"  idxOne="6"  idxTwo="13"  coef="-.5229"/><qTerm  idx="2"  idxOne="6"  idxTwo="17"  coef=".6745"/><qTerm  idx="2"  idxOne="6"  idxTwo="18"  coef=".13"/><qTerm  idx="2"  idxOne="7"  idxTwo="9"  coef="-1.9973"/><qTerm  idx="2"  idxOne="7"  idxTwo="10"  coef="-.6898"/><qTerm  idx="2"  idxOne="7"  idxTwo="17"  coef="-1.3584"/><qTerm  idx="2"  idxOne="7"  idxTwo="18"  coef="-.2815"/><qTerm  idx="2"  idxOne="8"  idxTwo="10"  coef="-1.0398"/><qTerm  idx="2"  idxOne="8"  idxTwo="13"  coef="1.0142"/><qTerm  idx="2"  idxOne="8"  idxTwo="15"  coef="-.8937"/><qTerm  idx="2"  idxOne="8"  idxTwo="16"  coef=".6486"/><qTerm  idx="2"  idxOne="8"  idxTwo="18"  coef="-1.1806"/><qTerm  idx="2"  idxOne="9"  idxTwo="13"  coef="-1.84"/><qTerm  idx="2"  idxOne="9"  idxTwo="17"  coef=".4329"/><qTerm  idx="2"  idxOne="9"  idxTwo="18"  coef="-.5892"/><qTerm  idx="2"  idxOne="11"  idxTwo="15"  coef=".1897"/><qTerm  idx="2"  idxOne="12"  idxTwo="13"  coef="-.5621"/><qTerm  idx="2"  idxOne="12"  idxTwo="15"  coef="1.6224"/><qTerm  idx="2"  idxOne="13"  idxTwo="13"  coef="-1.5156"/><qTerm  idx="2"  idxOne="13"  idxTwo="18"  coef="-1.8253"/><qTerm  idx="2"  idxOne="13"  idxTwo="19"  coef="-1.8303"/><qTerm  idx="2"  idxOne="15"  idxTwo="15"  coef=".3758"/><qTerm  idx="2"  idxOne="15"  idxTwo="16"  coef=".2338"/><qTerm  idx="2"  idxOne="16"  idxTwo="19"  coef="-.3835"/><qTerm  idx="3"  idxOne="0"  idxTwo="2"  coef="-1.4331"/><qTerm  idx="3"  idxOne="0"  idxTwo="3"  coef=".3411"/><qTerm  idx="3"  idxOne="0"  idxTwo="9"  coef="-1.7804"/><qTerm  idx="3"  idxOne="0"  idxTwo="18"  coef="1.7805"/><qTerm  idx="3"  idxOne="1"  idxTwo="2"  coef="-1.0934"/><qTerm  idx="3"  idxOne="1"  idxTwo="6"  coef=".4698"/><qTerm  idx="3"  idxOne="1"  idxTwo="10"  coef=".3697"/><qTerm  idx="3"  idxOne="1"  idxTwo="11"  coef=".1984"/><qTerm  idx="3"  idxOne="1"  idxTwo="16"  coef="1.5148"/><qTerm  idx="3"  idxOne="1"  idxTwo="17"  coef="-7.1e-3"/><qTerm  idx="3"  idxOne="2"  idxTwo="3"  coef="-1.2627"/><qTerm  idx="3"  idxOne="2"  idxTwo="8"  coef=".5535"/><qTerm  idx="3"  idxOne="2"  idxTwo="9"  coef="-.3452"/><qTerm  idx="3"  idxOne="2"  idxTwo="15"  coef="1.0055"/><qTerm  idx="3"  idxOne="2"  idxTwo="17"  coef="-.3991"/><qTerm  idx="3"  idxOne="3"  idxTwo="6"  coef=".1031"/><qTerm  idx="3"  idxOne="3"  idxTwo="13"  coef="-.4389"/><qTerm  idx="3"  idxOne="3"  idxTwo="18"  coef=".7654"/><qTerm  idx="3"  idxOne="3"  idxTwo="19"  coef="-.6393"/><qTerm  idx="3"  idxOne="4"  idxTwo="8"  coef="-1.7604"/><qTerm  idx="3"  idxOne="4"  idxTwo="10"  coef="1.5334"/><qTerm  idx="3"  idxOne="4"  idxTwo="13"  coef="1.5389"/><qTerm  idx="3"  idxOne="5"  idxTwo="6"  coef="1.3717"/><qTerm  idx="3"  idxOne="5"  idxTwo="13"  coef="-.7362"/><qTerm  idx="3"  idxOne="5"  idxTwo="17"  coef="1.9619"/><qTerm  idx="3"  idxOne="6"  idxTwo="12"  coef=".1329"/><qTerm  idx="3"  idxOne="6"  idxTwo="14"  coef="1.8346"/><qTerm  idx="3"  idxOne="6"  idxTwo="16"  coef="-.8949"/><qTerm  idx="3"  idxOne="7"  idxTwo="10"  coef="1.6054"/><qTerm  idx="3"  idxOne="7"  idxTwo="12"  coef=".3839"/><qTerm  idx="3"  idxOne="7"  idxTwo="18"  coef="-1.9103"/><qTerm  idx="3"  idxOne="8"  idxTwo="9"  coef="-1.0653"/><qTerm  idx="3"  idxOne="8"  idxTwo="13"  coef="1.8566"/><qTerm  idx="3"  idxOne="9"  idxTwo="15"  coef="1.7424"/><qTerm  idx="3"  idxOne="9"  idxTwo="16"  coef="-.9062"/><qTerm  idx="3"  idxOne="9"  idxTwo="17"  coef=".8717"/><qTerm  idx="3"  idxOne="10"  idxTwo="10"  coef="-.5744"/><qTerm  idx="3"  idxOne="10"  idxTwo="11"  coef="-1.9596"/><qTerm  idx="3"  idxOne="10"  idxTwo="13"  coef="1.4138"/><qTerm  idx="3"  idxOne="10"  idxTwo="16"  coef="1.0989"/><qTerm  idx="3"  idxOne="10"  idxTwo="18"  coef="1.8265"/><qTerm  idx="3"  idxOne="11"  idxTwo="12"  coef="-.2944"/><qTerm  idx="3"  idxOne="11"  idxTwo="16"  coef="-1.9992"/><qTerm  idx="3"  idxOne="11"  idxTwo="17"  coef="1.146"/><qTerm  idx="3"  idxOne="12"  idxTwo="15"  coef="-.2823"/><qTerm  idx="3"  idxOne="12"  idxTwo="17"  coef="-1.309"/><qTerm  idx="3"  idxOne="13"  idxTwo="14"  coef="-.4237"/><qTerm  idx="3"  idxOne="13"  idxTwo="15"  coef="-1.6428"/><qTerm  idx="3"  idxOne="13"  idxTwo="18"  coef=".9312"/><qTerm  idx="3"  idxOne="15"  idxTwo="16"  coef="-.7306"/><qTerm  idx="3"  idxOne="15"  idxTwo="17"  coef="1.9334"/><qTerm  idx="3"  idxOne="15"  idxTwo="18"  coef=".1197"/></quadraticCoefficients></instanceData></osil>
